clingo version 5.6.2
Reading from ...gen_asp_scripts/ijp_expt_cases-1013.dl
Solving...
UNSATISFIABLE

Models       : 0
Calls        : 1
Time         : 262.499s (Solving: 261.68s 1st Model: 0.00s Unsat: 261.68s)
CPU Time     : 262.356s
